Monkhorst-Pack Grid
0
Monkhorst
9 9 1
0 0 0
