Monkhorst-Pack Grid
0
Monkhorst
7 7 1
0 0 0
