Monkhorst-Pack Grid
0
Monkhorst
21 21 1
0 0 0
