K-points along high symmetry lines
40
Line-mode
rec
0.00000 0.00000 0.00000 ! Gamma
0.50000 0.00000 0.00000 ! M

0.50000 0.00000 0.00000 ! M
0.33333 0.33333 0.00000 ! K

0.33333 0.33333 0.00000 ! K
0.00000 0.00000 0.00000 ! Gamma