Graphene                                
   1.00000000000000     
     2.4681000000000002    0.0000000000000000    0.0000000000000000
    -1.2300000000000000    2.1299999999999999    0.0000000000000000
     0.0000000000000000    0.0000000000000000   20.0000000000000000
   C 
     2
Direct
  0.3333805621865844  0.6667135251655243  0.5000000000000000
  0.6666194378134157  0.3332864748344758  0.5000000000000000
 
  0.00000000E+00  0.00000000E+00  0.00000000E+00
  0.00000000E+00  0.00000000E+00  0.00000000E+00
