Monkhorst-Pack Grid
0
Monkhorst
11 11 1
0 0 0
