Monkhorst-Pack Grid
0
Monkhorst
13 13 1
0 0 0
