Monkhorst-Pack Grid
0
Monkhorst
5 5 1
0 0 0
