Monkhorst-Pack Grid
0
Monkhorst
15 15 1
0 0 0
