Graphene
0.97
         2.460000      0.000000      0.000000
        -1.230000      2.130000      0.000000
         0.000000      0.000000     20.000000
   C
   2
Direct
      0.333333      0.666667      0.500000
      0.666667      0.333333      0.500000