Monkhorst-Pack Grid
0
Monkhorst
3 3 1
0 0 0
