SYSTEM = Graphene Optimization
ENCUT = 400
ISMEAR = 0
SIGMA = 0.05
PREC = Accurate
EDIFF = 1.0E-6
EDIFFG = -0.01     
IBRION = 2          
ISIF = 3            
NSW = 100           
LREAL = .FALSE.
LWAVE = .FALSE.
LCHARG = .FALSE.